
n_res = 6;
rcap = [97, 100, 91, 98, 902, 950];
rtype = [1, 1, 1, 1, 2, 2];
n_tasks = 50;
modes =  [{1, 2, 3, 4, 5, 6, 7, 8, 9}, {10, 11, 12, 13, 14, 15, 16, 17, 18}, {19, 20, 21, 22, 23, 24, 25, 26, 27}, {28, 29, 30, 31, 32, 33, 34, 35, 36}, {37, 38, 39, 40, 41, 42, 43, 44, 45}, {46, 47, 48, 49, 50, 51, 52, 53, 54}, {55, 56, 57, 58, 59, 60, 61, 62, 63}, {64, 65, 66, 67, 68, 69, 70, 71, 72}, {73, 74, 75, 76, 77, 78, 79, 80, 81}, {82, 83, 84, 85, 86, 87, 88, 89, 90}, {91, 92, 93, 94, 95, 96, 97, 98, 99}, {100, 101, 102, 103, 104, 105, 106, 107, 108}, {109, 110, 111, 112, 113, 114, 115, 116, 117}, {118, 119, 120, 121, 122, 123, 124, 125, 126}, {127, 128, 129, 130, 131, 132, 133, 134, 135}, {136, 137, 138, 139, 140, 141, 142, 143, 144}, {145, 146, 147, 148, 149, 150, 151, 152, 153}, {154, 155, 156, 157, 158, 159, 160, 161, 162}, {163, 164, 165, 166, 167, 168, 169, 170, 171}, {172, 173, 174, 175, 176, 177, 178, 179, 180}, {181, 182, 183, 184, 185, 186, 187, 188, 189}, {190, 191, 192, 193, 194, 195, 196, 197, 198}, {199, 200, 201, 202, 203, 204, 205, 206, 207}, {208, 209, 210, 211, 212, 213, 214, 215, 216}, {217, 218, 219, 220, 221, 222, 223, 224, 225}, {226, 227, 228, 229, 230, 231, 232, 233, 234}, {235, 236, 237, 238, 239, 240, 241, 242, 243}, {244, 245, 246, 247, 248, 249, 250, 251, 252}, {253, 254, 255, 256, 257, 258, 259, 260, 261}, {262, 263, 264, 265, 266, 267, 268, 269, 270}, {271, 272, 273, 274, 275, 276, 277, 278, 279}, {280, 281, 282, 283, 284, 285, 286, 287, 288}, {289, 290, 291, 292, 293, 294, 295, 296, 297}, {298, 299, 300, 301, 302, 303, 304, 305, 306}, {307, 308, 309, 310, 311, 312, 313, 314, 315}, {316, 317, 318, 319, 320, 321, 322, 323, 324}, {325, 326, 327, 328, 329, 330, 331, 332, 333}, {334, 335, 336, 337, 338, 339, 340, 341, 342}, {343, 344, 345, 346, 347, 348, 349, 350, 351}, {352, 353, 354, 355, 356, 357, 358, 359, 360}, {361, 362, 363, 364, 365, 366, 367, 368, 369}, {370, 371, 372, 373, 374, 375, 376, 377, 378}, {379, 380, 381, 382, 383, 384, 385, 386, 387}, {388, 389, 390, 391, 392, 393, 394, 395, 396}, {397, 398, 399, 400, 401, 402, 403, 404, 405}, {406, 407, 408, 409, 410, 411, 412, 413, 414}, {415, 416, 417, 418, 419, 420, 421, 422, 423}, {424, 425, 426, 427, 428, 429, 430, 431, 432}, {433, 434, 435, 436, 437, 438, 439, 440, 441}, {442, 443, 444, 445, 446, 447, 448, 449, 450}];
succ =  [{50, 31, 30, 28, 27, 20, 18, 16, 15, 7}, {30, 27, 26, 22, 14, 7}, {50, 49, 47, 30, 28, 26, 7}, {49, 47, 45, 43, 29, 28, 27, 23, 21, 16}, {49, 47, 41, 33, 29, 28, 26, 25, 19, 17}, {50, 49, 48, 46, 45, 42, 41, 37, 36, 30, 29, 28, 26, 25}, {48, 46, 45, 44, 42, 41, 37, 35, 29, 25, 23}, {49, 47, 46, 43, 41, 36, 34, 29, 28, 26}, {49, 46, 45, 44, 43, 42, 41, 39, 36, 35, 34, 32}, {49, 48, 38, 36, 35, 32, 31, 25}, {45, 44, 41, 32, 31, 28, 23}, {48, 47, 42, 37, 36, 34, 28, 25}, {50, 49, 36, 28, 21}, {47, 45, 43, 42, 41, 38, 36, 35, 34}, {48, 46, 45, 42, 41, 38, 34, 32}, {46, 42, 41, 39, 34, 26}, {40, 38, 36, 35, 30}, {47, 42, 37, 25}, {45, 44, 37, 36, 35}, {48, 40, 39, 38}, {37, 35, 31}, {38, 34, 28}, {40, 36, 34}, {39, 35, 34}, {43, 40}, {44, 35}, {41, 38}, {39}, {38}, {34}, {34}, {37}, {42}, {}, {}, {}, {}, {}, {}, {}, {}, {}, {}, {}, {}, {}, {}, {}, {}, {}];
n_opt = 450;
dur = [3, 5, 16, 19, 20, 21, 26, 27, 29, 1, 2, 3, 11, 12, 14, 15, 17, 24, 5, 6, 7, 12, 16, 17, 20, 28, 30, 6, 9, 12, 15, 18, 19, 21, 22, 28, 5, 8, 10, 12, 13, 17, 20, 22, 28, 4, 5, 8, 13, 17, 18, 23, 26, 28, 10, 11, 12, 14, 15, 21, 22, 23, 25, 4, 5, 6, 7, 13, 22, 26, 29, 30, 4, 7, 9, 11, 16, 17, 26, 29, 30, 5, 12, 16, 22, 24, 25, 27, 28, 29, 3, 5, 8, 13, 15, 20, 21, 25, 26, 8, 12, 15, 17, 19, 20, 24, 25, 29, 4, 5, 6, 9, 10, 12, 13, 21, 22, 7, 9, 10, 11, 14, 16, 22, 25, 26, 6, 8, 12, 18, 20, 21, 22, 25, 26, 3, 5, 6, 11, 12, 13, 23, 24, 30, 1, 2, 7, 8, 11, 14, 18, 22, 29, 9, 12, 13, 14, 15, 26, 27, 28, 30, 1, 3, 4, 10, 11, 17, 19, 28, 29, 1, 2, 7, 9, 10, 11, 12, 13, 28, 6, 7, 9, 11, 17, 20, 24, 27, 29, 5, 17, 18, 20, 21, 22, 26, 28, 29, 1, 5, 7, 9, 15, 23, 26, 27, 28, 4, 9, 10, 13, 17, 21, 22, 25, 29, 1, 6, 7, 10, 11, 13, 17, 23, 26, 7, 8, 9, 10, 11, 12, 13, 14, 29, 4, 7, 9, 10, 13, 15, 23, 27, 30, 4, 6, 7, 14, 17, 20, 23, 24, 26, 9, 10, 11, 16, 22, 23, 24, 29, 30, 8, 10, 12, 14, 16, 17, 22, 26, 29, 4, 6, 7, 9, 14, 17, 18, 20, 30, 1, 6, 8, 12, 16, 19, 28, 29, 30, 1, 5, 6, 10, 11, 12, 14, 15, 17, 7, 13, 14, 16, 21, 22, 25, 26, 28, 5, 7, 8, 12, 14, 16, 20, 27, 29, 4, 6, 7, 9, 10, 14, 23, 28, 30, 2, 11, 13, 14, 15, 16, 20, 26, 30, 1, 7, 12, 18, 20, 22, 24, 25, 28, 7, 8, 9, 10, 21, 24, 25, 28, 29, 7, 11, 13, 15, 16, 18, 25, 26, 30, 3, 7, 16, 19, 21, 22, 23, 28, 29, 2, 5, 8, 14, 15, 16, 20, 25, 29, 2, 3, 8, 11, 17, 18, 20, 26, 29, 5, 15, 16, 18, 19, 20, 22, 26, 27, 4, 7, 9, 12, 15, 20, 21, 22, 30, 2, 3, 8, 9, 11, 12, 13, 21, 25, 4, 6, 12, 16, 18, 19, 24, 27, 29, 8, 14, 15, 16, 17, 22, 24, 29, 30, 10, 14, 15, 16, 17, 18, 19, 23, 29, 3, 4, 5, 11, 13, 14, 22, 25, 30];
rreq = [|27, 24, 24, 23, 21, 20, 19, 18, 17, 19, 18, 18, 16, 15, 15, 14, 12, 12, 16, 15, 14, 13, 13, 12, 12, 12, 11, 17, 15, 11, 10, 9, 8, 5, 2, 2, 20, 18, 18, 15, 15, 14, 11, 10, 10, 25, 23, 22, 20, 18, 17, 16, 15, 14, 23, 22, 22, 22, 21, 21, 21, 21, 21, 27, 26, 22, 21, 18, 17, 12, 11, 9, 26, 23, 21, 20, 18, 16, 14, 10, 7, 22, 20, 17, 16, 15, 13, 11, 10, 9, 13, 12, 12, 12, 12, 12, 12, 12, 12, 27, 25, 21, 18, 15, 12, 9, 5, 2, 24, 23, 22, 22, 20, 19, 18, 16, 14, 17, 17, 17, 17, 17, 17, 17, 17, 17, 18, 15, 15, 11, 11, 10, 6, 5, 4, 6, 6, 6, 6, 5, 5, 4, 4, 4, 25, 24, 24, 24, 24, 23, 23, 23, 23, 18, 18, 18, 18, 17, 17, 17, 16, 16, 14, 13, 13, 11, 11, 10, 9, 9, 8, 7, 6, 6, 5, 5, 4, 4, 3, 3, 19, 16, 15, 11, 10, 9, 6, 6, 4, 16, 15, 15, 15, 15, 14, 14, 14, 14, 22, 19, 19, 17, 16, 15, 15, 14, 12, 21, 18, 17, 15, 12, 8, 5, 3, 1, 21, 21, 20, 19, 18, 16, 14, 14, 12, 8, 8, 8, 8, 8, 8, 8, 8, 8, 24, 23, 22, 21, 19, 16, 15, 13, 12, 11, 9, 8, 8, 6, 4, 3, 3, 1, 22, 20, 20, 19, 18, 16, 15, 14, 13, 24, 19, 17, 17, 14, 11, 7, 6, 2, 10, 9, 8, 6, 6, 4, 3, 2, 1, 25, 24, 24, 24, 23, 23, 23, 23, 23, 23, 23, 23, 23, 23, 23, 23, 23, 23, 4, 4, 4, 4, 3, 3, 3, 3, 3, 20, 19, 17, 17, 15, 14, 14, 12, 12, 27, 25, 25, 22, 21, 21, 19, 18, 17, 15, 14, 13, 11, 9, 9, 7, 7, 5, 27, 22, 19, 17, 16, 12, 11, 7, 5, 17, 16, 15, 13, 12, 11, 11, 9, 8, 29, 29, 28, 27, 25, 25, 24, 22, 21, 6, 5, 5, 4, 4, 4, 4, 3, 3, 19, 19, 19, 19, 19, 19, 19, 19, 19, 25, 24, 24, 24, 24, 24, 24, 24, 24, 22, 19, 19, 16, 15, 14, 12, 10, 10, 16, 13, 12, 12, 11, 9, 8, 7, 6, 13, 10, 9, 8, 7, 7, 5, 5, 3, 10, 9, 9, 8, 7, 6, 4, 4, 2, 24, 24, 20, 16, 16, 11, 10, 8, 4, 19, 18, 18, 18, 18, 17, 17, 17, 17, 9, 8, 8, 7, 7, 6, 6, 5, 5
 |23, 20, 16, 13, 10, 8, 5, 4, 3, 17, 17, 17, 17, 17, 16, 16, 16, 16, 14, 14, 14, 14, 14, 14, 14, 14, 14, 27, 24, 24, 20, 20, 16, 14, 12, 9, 27, 27, 27, 27, 27, 27, 27, 27, 27, 27, 23, 20, 17, 14, 11, 9, 4, 2, 9, 8, 8, 8, 8, 7, 7, 7, 7, 27, 25, 25, 22, 21, 18, 18, 15, 14, 23, 23, 23, 23, 23, 23, 23, 23, 23, 10, 9, 8, 7, 6, 4, 4, 2, 1, 26, 23, 21, 19, 17, 17, 15, 12, 11, 22, 21, 20, 17, 16, 14, 14, 11, 9, 21, 20, 16, 16, 13, 11, 11, 9, 6, 29, 28, 28, 28, 28, 27, 27, 27, 27, 4, 4, 4, 4, 3, 3, 3, 3, 3, 20, 20, 17, 14, 14, 11, 10, 8, 5, 18, 16, 15, 12, 11, 9, 7, 6, 5, 20, 17, 16, 14, 11, 9, 8, 6, 4, 24, 24, 24, 24, 24, 24, 24, 24, 24, 11, 11, 9, 8, 8, 6, 6, 5, 3, 4, 4, 4, 4, 3, 3, 2, 2, 2, 10, 8, 8, 6, 5, 5, 3, 2, 1, 9, 8, 7, 7, 5, 4, 3, 2, 1, 27, 26, 26, 25, 24, 24, 23, 23, 23, 26, 24, 21, 21, 16, 16, 14, 10, 8, 16, 15, 15, 15, 14, 14, 14, 14, 14, 16, 14, 13, 13, 12, 11, 9, 8, 7, 22, 20, 18, 17, 16, 14, 13, 11, 10, 19, 18, 16, 15, 14, 14, 12, 12, 10, 22, 20, 18, 16, 13, 11, 6, 5, 3, 15, 13, 11, 11, 9, 9, 8, 6, 5, 15, 14, 14, 14, 14, 14, 14, 14, 14, 24, 22, 18, 16, 16, 13, 12, 8, 8, 12, 10, 9, 7, 6, 5, 4, 3, 2, 12, 11, 11, 9, 9, 9, 7, 6, 6, 25, 24, 23, 23, 22, 22, 21, 21, 20, 2, 2, 2, 2, 1, 1, 1, 1, 1, 27, 25, 25, 25, 23, 23, 22, 22, 21, 29, 27, 23, 23, 20, 19, 16, 15, 13, 16, 15, 14, 14, 14, 13, 13, 12, 12, 20, 19, 17, 16, 16, 15, 15, 14, 13, 17, 16, 16, 16, 16, 16, 16, 16, 16, 8, 8, 8, 8, 8, 8, 8, 8, 8, 20, 18, 18, 17, 17, 16, 15, 14, 14, 26, 21, 20, 18, 17, 12, 10, 8, 6, 17, 15, 14, 12, 11, 9, 9, 6, 5, 10, 10, 10, 10, 9, 9, 9, 8, 8, 6, 6, 6, 5, 5, 5, 5, 4, 4, 5, 4, 4, 4, 3, 3, 3, 3, 3, 21, 19, 19, 18, 18, 17, 17, 16, 16
 |24, 23, 22, 22, 20, 20, 19, 18, 18, 26, 26, 25, 23, 22, 20, 20, 19, 18, 8, 6, 6, 5, 5, 5, 4, 3, 3, 10, 9, 9, 8, 8, 7, 6, 6, 6, 15, 14, 13, 12, 11, 11, 10, 8, 7, 17, 16, 16, 16, 15, 15, 15, 15, 15, 20, 19, 17, 16, 16, 15, 14, 14, 13, 19, 19, 19, 19, 19, 19, 19, 19, 19, 28, 28, 27, 26, 24, 23, 23, 21, 21, 29, 29, 29, 29, 28, 28, 28, 27, 27, 25, 25, 23, 23, 20, 20, 19, 17, 17, 14, 12, 11, 11, 8, 8, 7, 5, 4, 24, 23, 23, 23, 22, 22, 22, 21, 21, 11, 10, 8, 7, 7, 5, 3, 2, 2, 19, 19, 15, 14, 13, 10, 7, 6, 4, 5, 5, 5, 5, 5, 5, 5, 5, 5, 21, 21, 17, 15, 12, 10, 8, 6, 6, 20, 18, 17, 13, 12, 10, 10, 7, 6, 11, 10, 10, 10, 10, 10, 10, 10, 10, 20, 19, 19, 17, 17, 16, 16, 14, 14, 29, 29, 29, 29, 29, 29, 29, 29, 29, 30, 28, 27, 26, 25, 24, 23, 23, 22, 26, 22, 20, 16, 14, 11, 7, 6, 2, 12, 10, 10, 9, 9, 8, 8, 8, 7, 15, 15, 14, 12, 11, 11, 9, 8, 8, 29, 29, 29, 29, 29, 28, 28, 28, 28, 28, 27, 27, 27, 26, 26, 26, 26, 26, 12, 9, 9, 8, 6, 5, 4, 3, 2, 22, 20, 18, 18, 13, 12, 11, 8, 6, 18, 18, 15, 15, 12, 11, 10, 8, 6, 29, 23, 20, 18, 17, 13, 11, 6, 4, 30, 25, 24, 22, 20, 17, 17, 15, 11, 9, 7, 7, 5, 5, 3, 3, 1, 1, 3, 3, 3, 3, 3, 3, 3, 3, 3, 7, 7, 5, 5, 4, 3, 3, 2, 1, 25, 25, 25, 25, 25, 25, 25, 25, 25, 20, 19, 19, 19, 19, 19, 19, 19, 19, 25, 25, 25, 24, 24, 24, 24, 23, 23, 26, 25, 24, 23, 22, 21, 20, 20, 19, 23, 21, 21, 18, 17, 17, 15, 14, 12, 20, 18, 17, 17, 16, 15, 14, 13, 12, 15, 15, 14, 13, 13, 12, 12, 10, 10, 16, 14, 13, 12, 10, 10, 8, 7, 6, 18, 15, 14, 13, 10, 8, 5, 4, 2, 28, 27, 27, 27, 26, 26, 25, 24, 24, 2, 2, 2, 2, 2, 2, 2, 2, 2, 30, 29, 29, 28, 28, 27, 27, 26, 26, 28, 25, 24, 24, 23, 21, 20, 20, 18, 27, 26, 22, 21, 18, 16, 13, 10, 9, 29, 29, 29, 29, 29, 28, 28, 28, 28
 |26, 25, 25, 23, 22, 21, 20, 20, 19, 26, 25, 25, 23, 23, 22, 21, 20, 20, 16, 14, 14, 13, 13, 12, 12, 12, 11, 20, 19, 19, 19, 19, 19, 19, 19, 19, 28, 26, 25, 24, 24, 23, 21, 20, 19, 22, 19, 18, 17, 13, 11, 9, 7, 7, 23, 20, 17, 14, 13, 10, 8, 4, 3, 18, 18, 16, 13, 11, 9, 6, 6, 4, 24, 24, 23, 21, 21, 19, 19, 18, 17, 17, 17, 15, 14, 13, 11, 11, 8, 7, 27, 25, 22, 20, 19, 14, 13, 9, 7, 24, 23, 22, 21, 20, 20, 19, 18, 18, 24, 21, 18, 16, 16, 14, 11, 8, 6, 16, 14, 13, 10, 9, 9, 8, 5, 5, 24, 23, 22, 22, 21, 20, 20, 19, 19, 19, 18, 16, 14, 11, 10, 8, 5, 4, 27, 23, 21, 17, 15, 12, 10, 10, 5, 15, 13, 12, 12, 10, 9, 9, 7, 7, 25, 22, 18, 14, 13, 12, 6, 5, 3, 12, 11, 11, 11, 11, 11, 11, 11, 11, 16, 15, 15, 14, 13, 13, 13, 12, 12, 16, 15, 14, 14, 14, 13, 12, 12, 12, 4, 4, 4, 4, 4, 4, 4, 4, 4, 26, 26, 24, 20, 18, 16, 14, 14, 12, 28, 27, 27, 27, 26, 26, 26, 26, 26, 6, 5, 5, 5, 4, 4, 4, 4, 4, 15, 14, 12, 12, 11, 9, 9, 7, 7, 30, 28, 26, 23, 23, 21, 19, 17, 17, 13, 13, 13, 13, 13, 13, 13, 13, 13, 25, 21, 19, 17, 16, 13, 13, 10, 9, 29, 23, 22, 20, 17, 14, 8, 7, 5, 29, 27, 25, 21, 20, 17, 15, 12, 10, 21, 17, 17, 13, 12, 9, 7, 6, 5, 20, 20, 19, 19, 19, 18, 17, 17, 17, 23, 22, 22, 20, 19, 19, 18, 17, 16, 22, 21, 19, 18, 18, 17, 15, 14, 14, 17, 14, 14, 11, 11, 8, 6, 6, 4, 27, 24, 21, 20, 17, 16, 14, 10, 8, 13, 13, 12, 10, 10, 10, 9, 7, 7, 25, 24, 24, 23, 23, 22, 21, 21, 21, 8, 6, 5, 4, 4, 4, 3, 2, 1, 16, 15, 15, 14, 13, 13, 12, 12, 12, 5, 4, 4, 4, 4, 4, 4, 4, 4, 20, 19, 18, 18, 17, 16, 15, 14, 14, 23, 23, 20, 19, 19, 17, 14, 13, 12, 25, 21, 18, 18, 13, 12, 9, 6, 5, 15, 14, 13, 12, 11, 11, 11, 10, 9, 19, 18, 15, 13, 13, 10, 8, 6, 6, 27, 27, 27, 26, 26, 25, 24, 24, 24, 24, 22, 20, 17, 15, 12, 11, 8, 7
 |13, 11, 10, 9, 8, 8, 7, 5, 4, 23, 22, 22, 22, 22, 21, 21, 21, 21, 14, 13, 12, 11, 11, 11, 10, 10, 9, 22, 21, 21, 21, 21, 21, 21, 21, 21, 26, 25, 23, 21, 16, 16, 13, 8, 7, 28, 28, 28, 27, 27, 27, 27, 26, 26, 7, 7, 7, 7, 7, 7, 7, 7, 7, 24, 21, 20, 19, 17, 14, 12, 10, 9, 28, 26, 25, 24, 23, 21, 20, 19, 18, 27, 27, 24, 21, 19, 17, 15, 15, 12, 28, 28, 28, 28, 27, 27, 27, 27, 27, 20, 18, 15, 13, 12, 10, 8, 5, 3, 10, 9, 8, 7, 6, 5, 3, 3, 2, 12, 12, 12, 11, 11, 11, 11, 10, 10, 22, 20, 19, 18, 17, 17, 15, 14, 14, 17, 17, 16, 15, 14, 13, 11, 11, 10, 18, 18, 17, 16, 13, 13, 11, 11, 10, 7, 7, 6, 6, 5, 4, 4, 2, 2, 3, 3, 3, 3, 2, 2, 2, 2, 2, 25, 25, 25, 25, 25, 25, 25, 25, 25, 11, 11, 10, 7, 6, 6, 5, 3, 2, 21, 19, 17, 13, 11, 8, 7, 3, 1, 27, 23, 20, 17, 15, 13, 10, 6, 4, 25, 23, 19, 18, 15, 11, 7, 6, 4, 24, 22, 21, 20, 17, 15, 13, 13, 11, 28, 27, 25, 23, 21, 19, 18, 16, 15, 23, 20, 19, 19, 17, 15, 15, 14, 13, 25, 23, 22, 21, 20, 20, 18, 18, 17, 2, 2, 2, 2, 2, 2, 2, 2, 2, 26, 23, 22, 22, 20, 19, 16, 16, 14, 18, 15, 13, 12, 11, 10, 6, 5, 3, 17, 17, 17, 16, 16, 16, 15, 15, 15, 22, 21, 21, 21, 21, 21, 21, 21, 21, 29, 28, 27, 25, 24, 23, 23, 21, 21, 17, 14, 14, 13, 11, 10, 10, 8, 8, 29, 28, 28, 28, 27, 27, 27, 26, 26, 23, 22, 17, 15, 12, 12, 9, 6, 5, 28, 26, 26, 22, 22, 20, 17, 14, 13, 29, 29, 29, 28, 28, 27, 26, 26, 26, 8, 8, 6, 6, 5, 4, 2, 1, 1, 18, 18, 17, 17, 16, 15, 15, 14, 14, 12, 11, 10, 9, 9, 7, 7, 6, 4, 19, 18, 16, 16, 15, 14, 12, 12, 11, 23, 23, 21, 17, 16, 14, 12, 10, 7, 26, 23, 22, 21, 21, 20, 19, 17, 16, 22, 22, 18, 16, 14, 13, 10, 9, 6, 28, 28, 26, 23, 22, 18, 16, 16, 14, 16, 16, 15, 13, 13, 12, 11, 10, 10, 28, 28, 27, 26, 26, 25, 24, 24, 23, 15, 14, 13, 11, 11, 9, 9, 8, 6
 |26, 22, 19, 16, 16, 10, 10, 6, 1, 24, 19, 17, 16, 13, 11, 8, 4, 4, 26, 24, 21, 20, 18, 16, 15, 12, 10, 21, 18, 17, 15, 13, 12, 9, 8, 5, 25, 20, 20, 18, 15, 12, 10, 8, 6, 14, 12, 12, 10, 10, 9, 8, 7, 7, 14, 13, 13, 12, 12, 12, 11, 11, 11, 25, 24, 19, 19, 16, 12, 12, 8, 7, 19, 19, 19, 18, 17, 17, 17, 16, 16, 13, 13, 13, 13, 13, 13, 13, 13, 13, 21, 19, 17, 14, 12, 11, 10, 7, 5, 29, 23, 20, 18, 14, 10, 10, 4, 2, 21, 20, 18, 17, 16, 16, 14, 13, 13, 24, 24, 23, 21, 21, 18, 17, 16, 15, 24, 22, 22, 21, 21, 20, 19, 18, 18, 10, 9, 9, 8, 8, 7, 7, 6, 6, 25, 24, 24, 23, 21, 20, 19, 16, 16, 20, 20, 17, 14, 13, 12, 11, 8, 7, 28, 26, 22, 21, 16, 14, 13, 11, 7, 11, 9, 9, 8, 7, 5, 4, 2, 1, 10, 10, 10, 10, 9, 9, 8, 8, 8, 22, 21, 20, 19, 19, 18, 17, 16, 16, 28, 28, 26, 24, 24, 23, 20, 20, 18, 22, 19, 17, 15, 13, 13, 10, 8, 8, 20, 18, 18, 14, 14, 12, 9, 8, 7, 23, 22, 20, 18, 17, 17, 14, 14, 12, 8, 7, 7, 7, 7, 6, 6, 6, 6, 29, 27, 26, 25, 25, 23, 21, 20, 19, 12, 11, 11, 10, 10, 10, 10, 9, 9, 29, 28, 27, 26, 26, 25, 25, 24, 23, 22, 22, 22, 22, 22, 21, 21, 21, 21, 21, 19, 19, 18, 18, 17, 17, 17, 16, 25, 25, 25, 25, 25, 24, 24, 24, 24, 27, 25, 23, 23, 21, 18, 18, 15, 13, 11, 8, 7, 7, 6, 5, 4, 3, 1, 8, 6, 6, 4, 4, 4, 2, 2, 1, 25, 23, 21, 21, 19, 18, 17, 16, 16, 21, 19, 18, 18, 17, 17, 16, 14, 14, 25, 24, 24, 24, 22, 22, 21, 20, 20, 30, 25, 23, 19, 16, 14, 12, 10, 7, 25, 25, 22, 21, 21, 18, 16, 15, 14, 30, 26, 24, 24, 21, 19, 19, 17, 15, 18, 16, 15, 14, 11, 9, 6, 6, 4, 23, 22, 21, 20, 19, 18, 17, 16, 15, 30, 24, 24, 20, 17, 16, 12, 10, 9, 17, 16, 15, 15, 13, 13, 12, 12, 11, 30, 29, 27, 26, 26, 25, 23, 23, 22, 30, 29, 28, 26, 26, 24, 23, 23, 22, 23, 21, 21, 19, 19, 17, 17, 16, 15, 18, 15, 15, 13, 9, 8, 6, 4, 1|];